011000000001000011110001101010001101110111001100100001101110100001000110000010000011011011110000101000100000000000000000001011100100111001000011000000100000000011111100100010001101000100001001000000110001010101111011100101100000001100010101101110111101011001000001111111101011000000110101000000000000011010111000001111110000000000001101111101100101001100000000010111000100110110001100000010000111101101101101001010010111011100110101100011111000001001101001101100001001111000001110110011010110010101001001011000100000000111001111100110000100000111110101011101101100010100000111100100001111011000010001100100101010111011000110100100100111011000001101111011001100011010000101010101101001010000100011010101000001001100100010100111110111100100010100000101100011011011100100100000111011110010000111010010111111110110011000010101011110001110001111000000101000111010111001